! B3LYP def2-SVP TightSCF Freq Engrad
* xyz 0 1
   O          0.0000000198         -0.0088082649         -0.0000000004
   H          0.3697749541          0.3505233509          0.0000000913
   H         -0.3697756482          0.3505227786         -0.0000001430
*
%elprop
 Polar 1
end
