! B3LYP def2-SVP TightSCF Freq Engrad
* xyz 0 1
   O         -0.0000000420         -0.0081431894         -0.0000000001
   H          0.4279913875          0.3295191340          0.0000002005
   H         -0.4279886382          0.3295169919         -0.0000001695
*
%elprop
 Polar 1
end
