! B3LYP def2-SVP TightSCF Freq Engrad
* xyz 0 1
   O          0.0000000008         -0.0075479978          0.0000000000
   H          0.4006640593          0.3106967810          0.0000000000
   H         -0.4006640602          0.3106967815          0.0000000000
*
%elprop
 Polar 1
end
