! B3LYP def2-SVP TightSCF Freq Engrad
* xyz 0 1
   O         -0.0008111129         -0.0075479690         -0.0000000000
   H          0.4263051162          0.3310548075          0.0000001411
   H         -0.3750199595          0.2903368746         -0.0000000554
*
%elprop
 Polar 1
end
