! B3LYP def2-SVP TightSCF Freq Engrad
* xyz 0 1
   N         -0.0012121005         -0.0002725128          0.0826494367
   H          0.4856061828          0.0118009854         -0.1515702645
   H         -0.2053240452          0.4581903963         -0.1278614025
   H         -0.2175820794         -0.4558789131         -0.1207607799
*
%elprop
 Polar 1
end
