! B3LYP def2-SVP Opt NumFreq TightSCF

%maxcore 2000

%freq
PROJECTTR false
end
* xyz 0 1
  O  0.0000  0.0000  0.0000
  H  0.7500  0.5800  0.0000
  H -0.7500  0.5800  0.0000
*
%elprop
 Polar 1
end

