! B3LYP def2-SVP Opt NumFreq TightSCF

%maxcore 2000

%freq
PROJECTTR false
end
* xyz 0 1
  N  0.0000  0.0000  0.1200
  H  0.9428  0.0000 -0.2400
  H -0.4714  0.8165 -0.2400
  H -0.4714 -0.8165 -0.2400
*
%elprop
 Polar 1
end

