! B3LYP def2-SVP TightSCF Freq Engrad
* xyz 0 1
   N          0.0002667028         -0.0012107192          0.0826482867
   H          0.4986911590          0.0524285400         -0.1292927735
   H         -0.2291350597          0.4288377487         -0.1512032522
   H         -0.2836491402         -0.4184773509         -0.1196440868
*
%elprop
 Polar 1
end
