! B3LYP def2-SVP TightSCF Freq Engrad
* xyz 0 1
   O          0.0000000436         -0.0069528063          0.0000000001
   H          0.3733367312          0.2918744279         -0.0000002005
   H         -0.3733394822          0.2918765712          0.0000001695
*
%elprop
 Polar 1
end
