! B3LYP def2-SVP TightSCF Freq Engrad
* xyz 0 1
   N          0.0012017311          0.0002725237          0.0826471785
   H          0.5069249344         -0.0118010084         -0.1152029612
   H         -0.2909363455          0.4013747737         -0.1389066152
   H         -0.2786782777         -0.4036862448         -0.1460072451
*
%elprop
 Polar 1
end
