! B3LYP def2-SVP TightSCF Freq Engrad
* xyz 0 1
   O          0.0008111146         -0.0075480266          0.0000000000
   H          0.3750230025          0.2903387544         -0.0000001411
   H         -0.4263081609          0.3310566884          0.0000000554
*
%elprop
 Polar 1
end
