! B3LYP def2-SVP TightSCF Freq Engrad
* xyz 0 1
   O         -0.0000000181         -0.0062877308          0.0000000004
   H          0.4315531645          0.2708702110         -0.0000000913
   H         -0.4315524722          0.2708707845          0.0000001430
*
%elprop
 Polar 1
end
